NAME : problems/40-tsp/instance-6.tsp
COMMENT : No Comment
TYPE : TSP
DIMENSION: 40
EDGE_WEIGHT_TYPE : EUC_2D
NODE_COORD_SECTION
1 8142 2859 
2 4440 478 
3 538 6936 
4 5231 8379 
5 1812 2170 
6 7029 4953 
7 9878 6351 
8 7005 5878 
9 308 618 
10 6133 3184 
11 6718 7396 
12 3396 6111 
13 8099 2841 
14 68 9673 
15 7432 1300 
16 3985 9346 
17 1088 9990 
18 2441 6655 
19 5357 5302 
20 707 7404 
21 8306 9466 
22 8136 7305 
23 550 2232 
24 7743 1817 
25 6028 3432 
26 3811 5752 
27 8266 581 
28 9759 806 
29 9464 3804 
30 8798 7470 
31 241 8349 
32 585 8988 
33 474 69 
34 7831 3797 
35 1232 7968 
36 4649 9201 
37 2624 9951 
38 3937 1916 
39 8715 3905 
40 7659 5421 
EOF
